(set-logic ALL)
(declare-rel simple!!query ())
(declare-rel itp (Int Int Int))
(declare-var A Int)
(declare-var B Int)
(declare-var C Int)
(declare-var D Int)
(declare-var E Int)
(rule (=> (and (= C 0) (not (<= 5 A)) (not (<= A 0)) (= B (* 3 A))) (itp C B A)))
(rule (=> (and (itp E D A) (= C (+ 1 E)) (not (<= 1000 E)) (= B (+ 1 D))) (itp C B A)))
(rule (let ((a!1 (and (itp A C B) (or (not (<= C 1012)) (not (>= C 3))))))
  (=> a!1 simple!!query)))
(query simple!!query)
